33D32945 STP File, STP Format Version 1.0

SECTION Comments
Name "shell_n10_d3_s2"
Problem "Euclidean Steiner Tree Problem"
Remark "Generated with STPGenerator. 3 dimensions."
END

SECTION Graph
Nodes 10
END

SECTION Coordinates
DDD 0 -0.9116914202 -0.3653628183 -0.1879594776
DDD 1 0.4116439040 -0.8933450078 0.1802331638
DDD 2 0.8138194091 -0.5338449280 0.2295812757
DDD 3 0.1192935021 0.7356064686 -0.6668224529
DDD 4 0.2965002669 0.6215523853 0.7250932520
DDD 5 -0.7951658184 0.2892593931 -0.5329543365
DDD 6 0.5889586060 -0.5612906513 -0.5814469582
DDD 7 -0.9349200577 0.0801634481 -0.3456852720
DDD 8 0.2184469700 -0.5324553956 0.8177849186
DDD 9 0.6863060709 0.5797604802 0.4391602927
END
